import Controller.dzn;
import LED.dzn;
import PWManager.dzn;

component AlarmSystem {
	provides IController iController;
	requires IPWManager iPWManager;
	
	system {
		Controller controller;
		LED led;
		
		iController <=> controller.iController;
		controller.iLed <=> led.iLed;
		controller.iPWManager <=> iPWManager;
	}
}
